phonons at Gamma
 &inputph
   outdir='tmp//',
   prefix='si',
   epsil=.true.,
   ldisp=.true.
   fildyn='dyn',
   nq1=4,
   nq2=4,
   nq3=4,
   tr2_ph=1.0d-14,
 /
0.0 0.0 0.0
