&CONTROL
  calculation = 'scf'
  prefix='diamond'
  pseudo_dir = './'
  outdir='./'
  verbosity = 'high',
  wf_collect=.true.
/
&SYSTEM
  ibrav       = 2,
  celldm(1)   = 6.737,
  nat         = 2,
  ntyp        = 1,
  ecutwfc     = 40.0
  ecutrho     = 200.0
/
&ELECTRONS
  conv_thr    = 1.D-8,
/
&IONS
/
ATOMIC_SPECIES
C  12.000  C_ONCV_PBE-1.0.upf
ATOMIC_POSITIONS alat
C 0.00 0.00 0.00
C 0.25 0.25 0.25 
K_POINTS automatic
4 4 4 0 0 0
