 &input
   fildyn='dyn.G',
   asr='simple',
 /
