 &input
  fildyn='dyn',
  zasr='simple',
  flfrc='si.444.fc'
 /
