&CONTROL
  calculation = 'nscf'
  prefix='diamond'
  pseudo_dir = './'
  outdir='./'
  verbosity = 'high',
  wf_collect=.true.
/
&SYSTEM
  ibrav       = 2,
  celldm(1)   = 6.737,
  nat         = 2,
  ntyp        = 1,
  ecutwfc     = 20.0
  ecutrho     = 200.0
  nbnd        = 8,
/
&ELECTRONS
  conv_thr    = 1.D-8,
/
&IONS
/
ATOMIC_SPECIES
C  12.000  C_ONCV_PBE-1.0.upf
ATOMIC_POSITIONS alat
C 0.00 0.00 0.00
C 0.25 0.25 0.25
K_POINTS tpiba_band
6
0.0 0.0 0.0  10 ! Γ
0.5 0.0 0.5  10 ! X
0.375 0.375 0.75  10 ! L
0.0 0.0 0.0  10 ! Γ
0.5 0.5 0.5  10 ! W
0.25 0.25 0.25  10 ! K
