 &bands
    prefix  = 'si'
    filband = 'bands.dat'
    outdir  = './'
 /
