 &dos
    prefix  = 'si'
    outdir  = './'
    Emin = -6.00, Emax = 10.00
    DeltaE = 0.01,
    fildos = 'dos.dat'
/
