&CONTROL
  calculation = 'nscf'
  prefix='si'
  pseudo_dir = './'
  outdir='./'
  verbosity = 'high',
  wf_collect=.true.
/
&SYSTEM
  ibrav       = 2,
  celldm(1)   = 10.26314,
  nat         = 2,
  ntyp        = 1,
  ecutwfc     = 40.0
  ecutrho     = 200.0
  nbnd        = 8
  occupations = "tetrahedra"
/
&ELECTRONS
  conv_thr    = 1.D-8,
/
&IONS
/
ATOMIC_SPECIES
Si  28.086  si_pbe_v1.uspp.F.UPF
ATOMIC_POSITIONS alat
Si  0.0   0.0   0.0 
Si  0.25  0.25  0.25 
K_POINTS automatic
6 6 6 0 0 0

