 &bands
    prefix  = 'diamond'
    filband = 'bands.dat'
    outdir  = './'
 /
